  1   0   0   0   0   0   0   0   0   0   0   0   0   0   0   0   0   0   0   0   0   0   0   0   0   0   0   0   0   0   0   0   0   0   0   0   0   0   0   0   0   0   0   0   0   0   0   0   0   0   0   0   0   0   0   0   0   0   0   0   0   0   0   0   0   0   0   0   0   0   0   0   0   0   0   0   0   0   0   0   0   0   0   0   0   0   0   0   0   0   0   0   0   0   0   0   0   0   0   0   0   0   0   0   0   0   0   0   0   0   0   0   0   0   0   0   0   0   0   0   0   0   0   0   0   0   0   0   0   0   0   0   0   0   0   0   0   0   0   0   0   0   0   0   0   0   0   0   0   0   0   0   0   0   0   0   0   0   0   0   0   0   0   0   0   0   0   0   0   0   0   0   0   0   0   0   0   0   0   0   0   0   0   0   0   0   0   0   0   0   0   0   0   0   0   0   0   0   0   0   0   0   0   0   0   0   0   0   0   0   0   0   0   0   0   0   0   0   0   0   0   0   0   0   0   0   0   0   0   0   0   0   0   0   0   0   0   0   0   0   0   0   0   0   0   0   0   0   0   0   0   0   0   0   0   0   0   0   0   0   0   0   0   0   0   0   0   0   0   0   0   0   0   0   0   0   0   0   0   0   0   0   0   0   0   0   0   0   0   0   0   0   0   0   0   0   0   0   0   0   0   0   0   0   0   0   0   0   0   0   0   0   0   0   0   0   0   0   0   0   0   0   0   0   0   0   0   0   0   0   0   0   0   0   0   0   0   0   0   0   0   0   0   0   0   0   0   0   0   0   0   0   0   0   0   0   0   0   0   0   0   0   0   0   0   0   0   0   0   0   0   0   0   0   0   0   0   0   0   0   0   0   0   0   0   0   0   0   0   0   0   0   0   0   0   0   0   0   0   0   0   0   0   0   0   0   0   0   0   0   0   0   0   0   0   0   0   0   0   0   0   0   0   0   0   0   0   0   0   0   0   0   0   0   0   0   0   0   0   0   0   0   0   0   0   0   0   0   0   0   0   0   0   0   0   0   0   0   0   0   0   0   0   0   0   0   0   0   0   0   0   0   0   0   0   0   0   0   0   0   0   0   0   0   0   0   0   0   0   0   0   0   0   0   0   0   0   0   0   0   0   0   0   0   0   0   0   0   0   0   0   0   0   0   0   0   0   0   0   0   0   0   0   0   0   0   0   0   0   0   0   0   0   0   0   0   0   0   0   0   0   0   0   0   0   0   0   0   0   0   0   0   0   0   0   0   0   0   0   0   0   0   0   0   0   0   0   0   0   0   0   0   0   0   0   0   0   0   0   0   0   0   0   0   0   0   0   0   0   0   0   0   0   0   0   0   0   0   0   0   0   0   0   0   0   0   0   0   0   0   0   0   0   0   0   0   0   0   0   0   0   0   0   0   0   0   0   0   0   0   0   0   0   0   0   0   0   0   0   0   0   0   0   0   0   0   0   0   0   0   0   0   0   0   0   0   0   0   0   0   0   0   0   0   0   0   0   0   0   0   0   0   0   0   0   0   0   0   0   0   0   0   0   0   0   0   0   0   0   0   0   0   0   0   0   0   0   0   0   0   0   0   0   0   0   0   0   0   0   0   0   0   0   0   0   0   0   0   0   0   0   0   0   0   0   0   0   0   0   0   0   0   0   0   0   0   0   0   0   0   0   0   0   0   0   0   0   0   0   0   0   0   0   0   0   0   0   0   0   0   0   0   0   0   0   0   0   0   0   0   0   0   0   0   0   0   0   0   0   0   0   0   0   0   0   0   0   0   0   0   0   0   0   0   0   0   0   0   0   0   0   0   0   0   0   0   0   0   0   0   0   0   0   0   0   0   0   0   0   0   0   0   0   0   0   0   0   0   0   0   0   0   0   0   0   0   0   0   0   0   0   0   0   0   0   0   0   0   0   0   0   0   0   0   0   0   0   0   0   0   0   0   0   0   0   0   0   0   0   0   0   0   0   0   0   0   0   0   0   0   0   0   0   0   0   0   0   0   0   0   0   0   0   0   0   0   0   0   0   0   0   0   0   0   0   0   0   0   0   0   0   0   0   0   0   0   0   0   0   0   0   0   0   0   0   0   0   0   0   0   0   0   0   0   0   0   0   0   0   0   0   0   0   0   0   0   0   0   0   0   0   0   0   0   0   0   0   0   0   0   0   0   0   0   0   0   0   0   0   0   0   0   0   0   0   0   0   0   0   0   0   0   0   0   0   0   0   0   0   0   0   0   0   0   0   0   0   0   0   0 
REMAINING SPACE:      0
ACCUMULATED PRIORITY: 35
EXECUTION TIME:       0.000159400
QTY PRI VAL
[1]  35 500
[0]  69 500
[0]  55 500
[0]  34 500
[0]  30 500
[0]  15 499
[0]  14 499
[0]  81 499
[0]  35 499
[0]  21 499
[0]  20 498
[0]  60 497
[0]  84 497
[0]  67 497
[0]  25 497
[0]  39 497
[0]  73 497
[0]  32 496
[0]  21 496
[0]  81 495
[0]  37 495
[0]  24 494
[0]  30 494
[0]  67 493
[0]  15 493
[0]  85 493
[0]  84 493
[0]  10 492
[0]  77 491
[0]  91 491
[0]  12 490
[0]  92 490
[0]  27 490
[0]  38 490
[0]  64 490
[0]  82 489
[0]  60 489
[0]  60 489
[0]  59 489
[0]  38 489
[0] 100 488
[0]  75 488
[0]  55 487
[0]  12 487
[0]  58 486
[0]  87 486
[0]  34 486
[0]  84 484
[0]  99 484
[0]  12 484
[0]  98 484
[0]  28 484
[0]  10 484
[0]  89 484
[0]  56 484
[0]  99 484
[0]  43 484
[0]  90 484
[0]  30 483
[0]  46 483
[0]  39 483
[0]  25 482
[0]  56 482
[0]  67 482
[0]  85 481
[0]  35 481
[0]  40 481
[0]  88 481
[0]  33 480
[0]  45 480
[0]  39 479
[0]  61 479
[0]  35 479
[0]  37 478
[0]  97 478
[0]  80 478
[0]  74 478
[0]  60 477
[0]  96 477
[0]  27 477
[0]  85 477
[0]  61 475
[0]  53 474
[0]  87 474
[0]  97 474
[0]  53 474
[0]  90 473
[0]  76 473
[0]  61 473
[0]  27 472
[0]  74 472
[0]  51 472
[0] 100 471
[0]  67 471
[0]  77 470
[0]  12 470
[0]  51 469
[0]  94 468
[0]  42 468
[0]  10 467
[0]  30 467
[0]  19 466
[0]  13 466
[0]  59 466
[0]  48 466
[0]  30 465
[0]  87 465
[0]  67 465
[0]  75 465
[0]  60 465
[0]  93 465
[0]  89 465
[0]  45 464
[0]  44 464
[0]  50 464
[0]  35 464
[0]  75 463
[0]  15 463
[0]  59 462
[0]  21 462
[0]  60 462
[0]  95 461
[0]  65 460
[0]  95 460
[0]  68 460
[0]  69 459
[0] 100 459
[0]  53 459
[0]  10 459
[0]  73 459
[0]  69 458
[0]  62 458
[0]  52 457
[0]  23 457
[0]  84 457
[0]  98 456
[0]  45 456
[0]  79 455
[0]  81 455
[0]  66 455
[0]  47 455
[0]  54 455
[0]  70 455
[0]  51 454
[0]  42 454
[0]  77 454
[0]  28 454
[0]  45 454
[0]  49 453
[0]  14 453
[0]  63 452
[0]  27 452
[0]  30 452
[0]  14 452
[0]  85 452
[0]  57 452
[0]  66 452
[0]  19 452
[0]  11 451
[0]  43 450
[0]  54 450
[0]  11 450
[0]  76 450
[0]  54 449
[0]  84 449
[0]  86 449
[0]  39 449
[0]  17 447
[0]  34 447
[0]  65 447
[0]  38 447
[0]  20 446
[0]  31 445
[0]  90 445
[0]  42 444
[0]  63 443
[0]  37 443
[0]  42 443
[0]  11 443
[0]  89 443
[0]  40 443
[0]  63 442
[0]  85 441
[0]  39 441
[0]  81 440
[0]  35 440
[0]  53 440
[0]  36 440
[0]  13 440
[0]  65 440
[0]  19 440
[0]  13 439
[0]  52 439
[0]  47 438
[0]  59 438
[0]  20 438
[0]  25 437
[0]  23 437
[0]  68 437
[0]  61 437
[0]  33 436
[0]  44 436
[0]  43 436
[0]  55 436
[0]  32 435
[0]  84 435
[0]  53 435
[0]  15 435
[0]  17 434
[0]  92 434
[0]  22 434
[0]  86 434
[0]  59 434
[0]  86 434
[0]  97 433
[0]  75 432
[0]  80 432
[0]  82 432
[0]  84 431
[0]  91 431
[0]  16 431
[0]  98 431
[0]  10 431
[0]  47 431
[0]  70 430
[0]  68 430
[0]  81 430
[0]  48 430
[0]  50 430
[0]  53 429
[0]  98 429
[0]  39 429
[0]  64 429
[0]  39 429
[0]  29 429
[0]  75 428
[0]  14 428
[0]  23 428
[0]  18 428
[0]  40 427
[0]  88 426
[0]  40 426
[0]  81 425
[0]  65 425
[0]  99 425
[0]  40 423
[0]  46 422
[0]  12 421
[0]  76 421
[0]  12 421
[0]  92 421
[0]  87 421
[0]  15 421
[0]  43 420
[0]  91 420
[0]  45 420
[0]  67 419
[0]  64 419
[0]  28 418
[0]  82 418
[0]  49 418
[0]  42 418
[0]  43 417
[0]  91 417
[0] 100 417
[0]  52 417
[0]  19 416
[0]  72 416
[0]  15 416
[0]  34 416
[0]  69 416
[0]  13 415
[0]  72 415
[0]  15 414
[0]  92 414
[0]  90 413
[0]  53 413
[0]  84 413
[0]  67 413
[0]  27 413
[0]  99 412
[0]  92 412
[0]  29 412
[0]  13 412
[0]  88 411
[0]  48 411
[0]  49 411
[0]  31 411
[0]  52 410
[0]  27 410
[0]  25 410
[0]  93 410
[0]  80 410
[0]  88 409
[0]  41 409
[0]  97 408
[0]  98 408
[0]  74 408
[0]  25 407
[0]  26 407
[0]  69 406
[0]  87 406
[0] 100 405
[0]  24 405
[0]  76 405
[0]  22 405
[0]  32 405
[0]  75 404
[0]  81 404
[0]  20 404
[0]  65 404
[0]  16 404
[0]  10 403
[0]  69 403
[0]  80 403
[0] 100 403
[0]  32 402
[0]  90 401
[0]  23 401
[0]  38 401
[0]  47 400
[0] 100 400
[0]  38 400
[0]  63 399
[0]  19 399
[0]  52 399
[0]  35 398
[0]  96 398
[0]  67 398
[0]  69 398
[0]  43 398
[0]  96 398
[0]  22 398
[0]  49 397
[0]  89 397
[0]  96 397
[0]  15 397
[0]  80 396
[0]  95 396
[0]  68 395
[0]  80 395
[0]  71 394
[0]  10 394
[0]  99 393
[0]  32 393
[0]  12 392
[0]  39 392
[0]  97 392
[0]  90 391
[0]  92 391
[0]  85 391
[0]  17 390
[0]  42 390
[0]  72 390
[0]  10 389
[0]  29 389
[0]  80 389
[0]  92 389
[0]  70 388
[0]  63 388
[0]  21 388
[0]  61 387
[0]  71 387
[0]  62 387
[0]  33 386
[0]  61 386
[0]  35 386
[0]  55 386
[0]  86 386
[0]  68 385
[0]  83 385
[0]  68 385
[0]  54 385
[0]  19 384
[0]  95 384
[0]  86 384
[0]  98 384
[0]  20 384
[0]  30 384
[0]  81 384
[0]  71 384
[0]  80 383
[0]  85 383
[0]  80 382
[0]  47 381
[0]  37 381
[0]  60 380
[0]  66 380
[0]  53 380
[0]  95 379
[0]  76 379
[0]  57 379
[0]  66 379
[0]  37 379
[0]  81 378
[0]  76 378
[0]  41 378
[0]  87 378
[0]  50 378
[0]  80 378
[0]  11 377
[0]  42 377
[0]  45 375
[0]  70 375
[0]  22 374
[0]  54 374
[0]  35 374
[0]  74 373
[0]  67 373
[0]  44 373
[0] 100 373
[0]  61 372
[0]  36 371
[0]  46 371
[0]  76 370
[0]  69 370
[0]  89 370
[0]  99 370
[0]  95 370
[0]  26 370
[0]  70 369
[0]  65 369
[0]  78 369
[0]  93 369
[0]  91 368
[0]  58 368
[0]  82 367
[0]  47 367
[0]  35 367
[0]  32 367
[0]  54 367
[0]  61 366
[0]  24 366
[0]  40 366
[0]  18 365
[0]  71 365
[0]  84 365
[0]  66 364
[0]  26 363
[0]  18 363
[0]  84 362
[0]  54 362
[0]  18 362
[0]  49 362
[0]  98 361
[0]  38 361
[0]  97 361
[0]  39 360
[0]  52 359
[0]  78 359
[0]  75 359
[0]  84 358
[0]  62 358
[0]  62 357
[0]  51 356
[0]  14 356
[0]  95 355
[0]  59 355
[0]  35 355
[0]  52 355
[0]  85 354
[0]  69 354
[0]  36 353
[0]  31 352
[0]  84 352
[0]  58 352
[0]  10 351
[0]  51 351
[0]  57 351
[0]  23 350
[0]  19 350
[0]  67 349
[0]  98 349
[0]  98 348
[0]  40 348
[0]  91 347
[0]  23 347
[0]  52 347
[0]  17 347
[0]  70 347
[0]  90 346
[0]  85 346
[0]  75 346
[0]  70 346
[0]  35 346
[0]  98 345
[0]  40 345
[0]  18 345
[0]  27 345
[0] 100 345
[0]  79 344
[0]  32 344
[0]  26 344
[0]  24 344
[0]  83 343
[0]  84 343
[0]  59 342
[0]  99 342
[0]  70 342
[0]  59 342
[0]  85 342
[0]  32 342
[0]  49 342
[0]  74 342
[0]  76 342
[0]  75 341
[0]  15 341
[0]  23 341
[0]  11 340
[0]  50 340
[0]  39 340
[0]  97 340
[0]  25 340
[0]  99 339
[0]  76 339
[0] 100 338
[0]  70 338
[0]  87 338
[0]  25 338
[0]  59 337
[0]  55 337
[0]  52 337
[0]  21 336
[0]  68 336
[0]  71 336
[0]  37 335
[0]  89 335
[0]  68 335
[0]  66 335
[0]  95 335
[0]  75 335
[0] 100 334
[0]  75 334
[0]  92 333
[0]  13 333
[0]  56 333
[0]  83 333
[0]  61 333
[0]  36 333
[0]  15 333
[0]  52 332
[0]  17 332
[0]  73 331
[0]  91 331
[0]  28 331
[0]  29 331
[0]  94 330
[0]  67 330
[0]  94 330
[0]  25 330
[0]  61 329
[0]  71 328
[0]  83 328
[0]  49 328
[0]  90 328
[0]  87 328
[0]  48 327
[0]  63 327
[0]  70 327
[0]  90 327
[0]  21 327
[0]  73 327
[0]  90 327
[0]  54 326
[0]  10 326
[0]  38 326
[0]  92 326
[0]  85 325
[0]  24 325
[0]  23 325
[0]  29 324
[0]  68 323
[0]  96 323
[0]  30 323
[0]  26 323
[0]  12 323
[0]  86 323
[0]  21 322
[0]  14 320
[0]  68 320
[0]  95 320
[0]  11 320
[0]  52 319
[0]  79 318
[0]  14 318
[0]  42 317
[0]  62 317
[0]  34 317
[0]  91 317
[0]  17 316
[0]  50 316
[0]  26 316
[0]  13 315
[0]  49 315
[0]  10 315
[0]  40 315
[0]  42 315
[0]  65 314
[0]  91 314
[0]  69 314
[0]  19 314
[0] 100 314
[0]  44 313
[0]  97 313
[0]  50 313
[0]  36 313
[0]  58 313
[0]  14 313
[0]  79 313
[0]  17 313
[0]  23 312
[0]  95 312
[0]  49 312
[0]  61 312
[0]  71 311
[0]  28 310
[0]  58 310
[0]  11 310
[0]  59 310
[0]  41 309
[0]  45 309
[0]  34 309
[0]  73 309
[0]  98 308
[0]  15 308
[0]  84 307
[0]  13 307
[0]  55 307
[0]  24 306
[0]  26 306
[0]  21 306
[0]  83 305
[0]  81 305
[0]  65 305
[0]  72 305
[0]  92 305
[0]  71 305
[0]  89 305
[0]  34 304
[0]  70 304
[0]  10 304
[0]  24 304
[0]  89 303
[0]  11 303
[0]  23 303
[0]  33 302
[0]  99 301
[0]  36 301
[0]  86 301
[0]  75 301
[0]  37 300
[0]  67 300
[0]  79 300
[0]  67 300
[0]  93 298
[0]  36 298
[0]  80 297
[0]  31 297
[0]  76 297
[0]  14 297
[0]  51 297
[0]  91 296
[0]  31 296
[0]  82 296
[0]  72 296
[0]  57 296
[0]  77 296
[0]  60 295
[0]  42 295
[0]  66 295
[0]  54 295
[0]  31 295
[0]  53 294
[0]  66 293
[0]  36 293
[0]  33 293
[0]  71 293
[0]  31 292
[0]  28 292
[0]  74 292
[0]  45 292
[0]  63 291
[0]  57 291
[0]  93 290
[0]  54 290
[0]  62 290
[0]  14 290
[0]  57 290
[0]  81 290
[0]  86 289
[0]  43 289
[0]  98 289
[0]  20 288
[0]  75 288
[0]  98 288
[0]  23 287
[0] 100 287
[0]  16 287
[0]  99 287
[0]  67 287
[0]  77 286
[0]  78 286
[0]  74 286
[0]  64 285
[0]  26 285
[0]  71 285
[0]  15 285
[0]  15 285
[0]  62 284
[0]  74 283
[0]  36 283
[0]  48 283
[0]  86 283
[0]  73 283
[0]  10 282
[0]  98 282
[0]  10 282
[0]  35 282
[0]  98 282
[0]  13 282
[0]  43 282
[0]  58 281
[0]  97 280
[0]  80 279
[0]  94 279
[0]  90 279
[0]  58 278
[0]  66 278
[0]  41 278
[0]  64 278
[0]  23 278
[0]  72 277
[0]  36 277
[0]  15 277
[0]  70 277
[0]  89 277
[0]  27 276
[0]  83 276
[0]  28 275
[0]  30 274
[0]  74 273
[0]  67 273
[0]  54 273
[0]  93 272
[0]  80 272
[0]  42 272
[0]  91 272
[0]  10 271
[0]  56 271
[0]  83 270
[0]  44 270
[0]  26 269
[0]  81 269
[0]  34 269
[0]  81 269
[0]  85 269
[0]  17 269
[0]  91 268
[0]  17 268
[0]  62 268
[0]  89 267
[0]  88 267
[0] 100 267
[0]  14 267
[0]  24 267
[0]  55 267
[0]  30 267
[0]  81 267
[0]  99 267
[0]  47 266
[0]  68 266
[0]  12 266
[0]  81 265
[0]  39 265
[0]  30 265
[0]  18 265
[0]  13 265
[0]  22 264
[0]  52 264
[0]  70 263
[0]  14 263
[0]  28 263
[0]  23 263
[0]  84 263
[0]  17 262
[0]  30 262
[0]  27 261
[0]  35 261
[0]  25 261
[0]  98 260
[0]  72 260
[0]  42 260
[0]  49 260
[0]  30 259
[0]  44 259
[0]  23 258
[0]  63 258
[0]  58 258
[0]  76 257
[0]  70 257
[0]  70 257
[0]  45 257
[0]  12 257
[0]  15 257
[0]  78 256
[0]  25 256
[0]  81 255
[0]  96 254
[0]  14 253
[0]  13 253
[0]  30 253
[0]  42 253
[0]  81 252
[0]  15 252
[0]  64 250
[0]  90 250
[0]  80 250
[0]  52 249
[0]  56 249
[0]  94 249
[0]  98 249
[0]  22 249
[0]  20 248
[0]  34 248
[0]  45 248
[0]  55 248
[0]  76 247
[0]  26 247
[0]  15 247
[0]  72 247
[0]  34 246
[0]  44 246
[0]  29 246
[0]  66 246
[0]  29 246
[0]  13 246
[0]  58 245
[0]  86 245
[0]  38 245
[0]  70 245
[0]  56 245
[0]  97 244
[0]  12 244
[0]  12 244
[0]  86 243
[0]  56 243
[0]  30 243
[0]  49 243
[0]  19 242
[0]  91 242
[0]  30 242
[0]  81 242
[0]  13 242
[0]  78 241
[0]  13 241
[0]  58 240
[0]  86 240
[0]  76 239
[0]  38 239
[0]  23 239
[0]  24 238
[0]  17 238
[0]  66 238
[0]  18 237
[0]  98 236
[0]  23 236
[0]  21 236
[0]  96 235
[0]  88 235
[0]  30 235
[0]  78 235
[0]  80 234
[0]  32 234
[0]  69 234
[0]  19 234
[0]  22 234
[0]  33 233
[0]  97 233
[0]  23 233
[0]  59 233
[0]  45 233
[0]  17 233
[0]  47 232
[0]  36 231
[0]  48 231
[0]  91 231
[0]  60 231
[0]  74 231
[0]  15 230
[0]  93 230
[0]  51 230
[0]  38 229
[0]  54 229
[0]  78 229
[0]  44 229
[0]  57 229
[0]  69 228
[0]  19 228
[0]  80 228
[0]  80 228
[0]  25 228
[0]  59 228
[0]  66 228
[0]  51 228
[0]  44 227
[0]  39 227
[0]  94 227
[0]  50 227
[0]  76 227
[0]  58 226
[0]  18 226
[0]  66 226
[0]  51 225
[0]  71 225
[0]  35 225
[0]  42 225
[0]  23 224
[0]  53 224
[0]  61 224
[0]  14 224
[0]  48 224
[0]  66 224
[0]  58 224
[0]  89 224
[0]  78 223
[0]  20 223
[0]  20 223
[0]  99 222
[0]  28 222
[0]  29 222
[0]  40 222
[0]  54 221
[0]  77 221
[0]  32 221
[0]  42 220
[0]  62 220
[0]  71 220
[0]  28 219
[0]  97 219
[0]  50 219
[0]  35 218
[0]  12 218
[0]  54 218
[0]  29 217
[0]  87 217
[0]  70 217
[0]  45 215
[0]  44 215
[0]  56 214
[0]  57 214
[0]  50 214
[0]  94 214
[0]  58 214
[0]  55 214
[0]  53 214
[0]  51 213
[0]  36 213
[0]  74 213
[0]  39 212
[0]  37 212
[0]  21 211
[0]  99 211
[0]  55 211
[0]  25 211
[0]  20 211
[0]  28 210
[0]  25 210
[0]  39 210
[0]  84 210
[0]  29 209
[0]  74 208
[0]  72 208
[0]  62 207
[0]  90 207
[0]  74 207
[0]  49 207
[0]  46 206
[0]  29 206
[0]  69 205
[0]  26 205
[0]  31 205
[0]  31 205
[0]  95 204
[0]  55 204
[0]  11 204
[0]  84 204
[0]  41 203
[0]  68 203
[0]  33 203
[0]  29 202
[0]  38 202
[0]  30 201
[0]  19 201
[0]  26 200
[0]  18 200
[0]  10 200
[0]  86 200
[0]  19 200
[0] 100 200
[0]  64 200
